(set-logic QF_FPBV)
(set-option :produce-models true)
(set-info :source |Random FP created by PyMPF|)
(set-info :category random)
(set-info :status sat)
;; fp.from.ubv(BitVec 128)
(declare-const x (_ BitVec 128))
(assert (bvuge x #b10001110011010110000011101000100000000110000001111101000110111000100010001000001001001011001100100011000101001000010010110010001))
;; x should be 189306098530636738499410144333811426705
(declare-const r Float32)
(assert (= r ((_ to_fp_unsigned 8 24) RTP x)))
(assert (fp.geq r ((_ to_fp 8 24) #x7F0E6B08)))
(check-sat)
(exit)
